50
15167

243 230
53 481
119 833
447 936
152 482
825 230
561 629
284 588
324 683
733 386
433 664
271 177
191 902
521 957
61 494
828 618
544 318
396 783
418 970
406 24
643 802
441 231
57 470
341 101
958 597
33 303
658 721
205 613
916 686
830 807
636 33
848 744
51 564
565 256
212 498
433 790
818 737
290 632
777 261
451 393
971 609
462 465
245 771
800 745
591 3
648 39
975 868
223 153
179 636
768 464
